c File: flat50_3_0.col
c
c SOURCE: Joseph Culberson (joe@cs.ualberta.ca)
c DESCRIPTION: Quasi-random coloring problem
c              generated with flatness = 0
c                             probability = 0.139
c                             known coloring = 3
c                             random seed = 1607
c              Creation Date:  Tue Jun  9 12:13:27 1998
c Maximum degree = 8 Minimum degree = 1
c p edge 50 115
c cnf created by edge2cnf
p cnf 150 545
-1 -2 0
-1 -3 0
-2 -3 0
1 2 3 0
-4 -5 0
-4 -6 0
-5 -6 0
4 5 6 0
-7 -8 0
-7 -9 0
-8 -9 0
7 8 9 0
-10 -11 0
-10 -12 0
-11 -12 0
10 11 12 0
-13 -14 0
-13 -15 0
-14 -15 0
13 14 15 0
-16 -17 0
-16 -18 0
-17 -18 0
16 17 18 0
-19 -20 0
-19 -21 0
-20 -21 0
19 20 21 0
-22 -23 0
-22 -24 0
-23 -24 0
22 23 24 0
-25 -26 0
-25 -27 0
-26 -27 0
25 26 27 0
-28 -29 0
-28 -30 0
-29 -30 0
28 29 30 0
-31 -32 0
-31 -33 0
-32 -33 0
31 32 33 0
-34 -35 0
-34 -36 0
-35 -36 0
34 35 36 0
-37 -38 0
-37 -39 0
-38 -39 0
37 38 39 0
-40 -41 0
-40 -42 0
-41 -42 0
40 41 42 0
-43 -44 0
-43 -45 0
-44 -45 0
43 44 45 0
-46 -47 0
-46 -48 0
-47 -48 0
46 47 48 0
-49 -50 0
-49 -51 0
-50 -51 0
49 50 51 0
-52 -53 0
-52 -54 0
-53 -54 0
52 53 54 0
-55 -56 0
-55 -57 0
-56 -57 0
55 56 57 0
-58 -59 0
-58 -60 0
-59 -60 0
58 59 60 0
-61 -62 0
-61 -63 0
-62 -63 0
61 62 63 0
-64 -65 0
-64 -66 0
-65 -66 0
64 65 66 0
-67 -68 0
-67 -69 0
-68 -69 0
67 68 69 0
-70 -71 0
-70 -72 0
-71 -72 0
70 71 72 0
-73 -74 0
-73 -75 0
-74 -75 0
73 74 75 0
-76 -77 0
-76 -78 0
-77 -78 0
76 77 78 0
-79 -80 0
-79 -81 0
-80 -81 0
79 80 81 0
-82 -83 0
-82 -84 0
-83 -84 0
82 83 84 0
-85 -86 0
-85 -87 0
-86 -87 0
85 86 87 0
-88 -89 0
-88 -90 0
-89 -90 0
88 89 90 0
-91 -92 0
-91 -93 0
-92 -93 0
91 92 93 0
-94 -95 0
-94 -96 0
-95 -96 0
94 95 96 0
-97 -98 0
-97 -99 0
-98 -99 0
97 98 99 0
-100 -101 0
-100 -102 0
-101 -102 0
100 101 102 0
-103 -104 0
-103 -105 0
-104 -105 0
103 104 105 0
-106 -107 0
-106 -108 0
-107 -108 0
106 107 108 0
-109 -110 0
-109 -111 0
-110 -111 0
109 110 111 0
-112 -113 0
-112 -114 0
-113 -114 0
112 113 114 0
-115 -116 0
-115 -117 0
-116 -117 0
115 116 117 0
-118 -119 0
-118 -120 0
-119 -120 0
118 119 120 0
-121 -122 0
-121 -123 0
-122 -123 0
121 122 123 0
-124 -125 0
-124 -126 0
-125 -126 0
124 125 126 0
-127 -128 0
-127 -129 0
-128 -129 0
127 128 129 0
-130 -131 0
-130 -132 0
-131 -132 0
130 131 132 0
-133 -134 0
-133 -135 0
-134 -135 0
133 134 135 0
-136 -137 0
-136 -138 0
-137 -138 0
136 137 138 0
-139 -140 0
-139 -141 0
-140 -141 0
139 140 141 0
-142 -143 0
-142 -144 0
-143 -144 0
142 143 144 0
-145 -146 0
-145 -147 0
-146 -147 0
145 146 147 0
-148 -149 0
-148 -150 0
-149 -150 0
148 149 150 0
-58 -1 0
-59 -2 0
-60 -3 0
-88 -1 0
-89 -2 0
-90 -3 0
-94 -1 0
-95 -2 0
-96 -3 0
-106 -1 0
-107 -2 0
-108 -3 0
-124 -1 0
-125 -2 0
-126 -3 0
-127 -1 0
-128 -2 0
-129 -3 0
-133 -1 0
-134 -2 0
-135 -3 0
-70 -4 0
-71 -5 0
-72 -6 0
-91 -4 0
-92 -5 0
-93 -6 0
-103 -4 0
-104 -5 0
-105 -6 0
-142 -4 0
-143 -5 0
-144 -6 0
-145 -4 0
-146 -5 0
-147 -6 0
-79 -7 0
-80 -8 0
-81 -9 0
-85 -7 0
-86 -8 0
-87 -9 0
-97 -7 0
-98 -8 0
-99 -9 0
-64 -10 0
-65 -11 0
-66 -12 0
-88 -10 0
-89 -11 0
-90 -12 0
-97 -10 0
-98 -11 0
-99 -12 0
-55 -13 0
-56 -14 0
-57 -15 0
-67 -13 0
-68 -14 0
-69 -15 0
-76 -13 0
-77 -14 0
-78 -15 0
-127 -13 0
-128 -14 0
-129 -15 0
-145 -13 0
-146 -14 0
-147 -15 0
-61 -16 0
-62 -17 0
-63 -18 0
-70 -16 0
-71 -17 0
-72 -18 0
-82 -16 0
-83 -17 0
-84 -18 0
-100 -16 0
-101 -17 0
-102 -18 0
-136 -16 0
-137 -17 0
-138 -18 0
-139 -16 0
-140 -17 0
-141 -18 0
-130 -19 0
-131 -20 0
-132 -21 0
-61 -22 0
-62 -23 0
-63 -24 0
-73 -22 0
-74 -23 0
-75 -24 0
-97 -22 0
-98 -23 0
-99 -24 0
-109 -22 0
-110 -23 0
-111 -24 0
-124 -22 0
-125 -23 0
-126 -24 0
-130 -22 0
-131 -23 0
-132 -24 0
-145 -22 0
-146 -23 0
-147 -24 0
-64 -25 0
-65 -26 0
-66 -27 0
-70 -25 0
-71 -26 0
-72 -27 0
-94 -25 0
-95 -26 0
-96 -27 0
-115 -25 0
-116 -26 0
-117 -27 0
-136 -25 0
-137 -26 0
-138 -27 0
-145 -25 0
-146 -26 0
-147 -27 0
-82 -28 0
-83 -29 0
-84 -30 0
-88 -28 0
-89 -29 0
-90 -30 0
-103 -28 0
-104 -29 0
-105 -30 0
-121 -28 0
-122 -29 0
-123 -30 0
-139 -28 0
-140 -29 0
-141 -30 0
-142 -28 0
-143 -29 0
-144 -30 0
-73 -31 0
-74 -32 0
-75 -33 0
-79 -31 0
-80 -32 0
-81 -33 0
-85 -31 0
-86 -32 0
-87 -33 0
-100 -31 0
-101 -32 0
-102 -33 0
-124 -31 0
-125 -32 0
-126 -33 0
-127 -31 0
-128 -32 0
-129 -33 0
-139 -31 0
-140 -32 0
-141 -33 0
-67 -34 0
-68 -35 0
-69 -36 0
-73 -34 0
-74 -35 0
-75 -36 0
-127 -34 0
-128 -35 0
-129 -36 0
-67 -37 0
-68 -38 0
-69 -39 0
-76 -37 0
-77 -38 0
-78 -39 0
-73 -40 0
-74 -41 0
-75 -42 0
-103 -40 0
-104 -41 0
-105 -42 0
-70 -43 0
-71 -44 0
-72 -45 0
-121 -43 0
-122 -44 0
-123 -45 0
-124 -43 0
-125 -44 0
-126 -45 0
-130 -43 0
-131 -44 0
-132 -45 0
-52 -46 0
-53 -47 0
-54 -48 0
-67 -46 0
-68 -47 0
-69 -48 0
-133 -46 0
-134 -47 0
-135 -48 0
-136 -46 0
-137 -47 0
-138 -48 0
-64 -49 0
-65 -50 0
-66 -51 0
-82 -49 0
-83 -50 0
-84 -51 0
-109 -49 0
-110 -50 0
-111 -51 0
-130 -49 0
-131 -50 0
-132 -51 0
-133 -49 0
-134 -50 0
-135 -51 0
-136 -49 0
-137 -50 0
-138 -51 0
-130 -52 0
-131 -53 0
-132 -54 0
-148 -52 0
-149 -53 0
-150 -54 0
-124 -55 0
-125 -56 0
-126 -57 0
-142 -55 0
-143 -56 0
-144 -57 0
-103 -58 0
-104 -59 0
-105 -60 0
-115 -58 0
-116 -59 0
-117 -60 0
-118 -58 0
-119 -59 0
-120 -60 0
-124 -58 0
-125 -59 0
-126 -60 0
-118 -61 0
-119 -62 0
-120 -63 0
-127 -61 0
-128 -62 0
-129 -63 0
-145 -61 0
-146 -62 0
-147 -63 0
-148 -61 0
-149 -62 0
-150 -63 0
-112 -64 0
-113 -65 0
-114 -66 0
-112 -67 0
-113 -68 0
-114 -69 0
-139 -67 0
-140 -68 0
-141 -69 0
-148 -67 0
-149 -68 0
-150 -69 0
-112 -76 0
-113 -77 0
-114 -78 0
-115 -76 0
-116 -77 0
-117 -78 0
-118 -76 0
-119 -77 0
-120 -78 0
-139 -76 0
-140 -77 0
-141 -78 0
-103 -79 0
-104 -80 0
-105 -81 0
-130 -79 0
-131 -80 0
-132 -81 0
-121 -82 0
-122 -83 0
-123 -84 0
-121 -85 0
-122 -86 0
-123 -87 0
-127 -85 0
-128 -86 0
-129 -87 0
-148 -85 0
-149 -86 0
-150 -87 0
-145 -88 0
-146 -89 0
-147 -90 0
-109 -91 0
-110 -92 0
-111 -93 0
-139 -91 0
-140 -92 0
-141 -93 0
-145 -91 0
-146 -92 0
-147 -93 0
-112 -94 0
-113 -95 0
-114 -96 0
-115 -94 0
-116 -95 0
-117 -96 0
-130 -94 0
-131 -95 0
-132 -96 0
-139 -94 0
-140 -95 0
-141 -96 0
-130 -97 0
-131 -98 0
-132 -99 0
-142 -97 0
-143 -98 0
-144 -99 0
-106 -100 0
-107 -101 0
-108 -102 0
-136 -100 0
-137 -101 0
-138 -102 0
